g9 1 1 0 0 20170614 0 4 0 496	# problem minsurf
 36 0 1 0 0	# vars, constraints, objectives, ranges, eqns
 0 1	# nonlinear constraints, objectives
 0 0	# network constraints: nonlinear, linear
 0 36 0	# nonlinear vars in constraints, objectives, both
 0 0 0 1	# linear network variables; functions; arith, flags
 0 0 0 0 0	# discrete variables: binary, integer, nonlinear (b,c,o)
 0 36	# nonzeros in Jacobian, gradients
 0 0	# max name lengths: constraints, variables
 0 0 0 0 94	# common exprs: b,c,o,c1,o1
b
3
3
3
3
3
3
3
3
3
3
3
3
3
3
3
3
3
3
3
3
3
3
3
3
3
3
3
3
3
3
3
3
3
3
3
3
V36 0 1
o5
o1
n1
v0
n2
V37 0 1
o5
o1
n1
v1
n2
V38 0 1
o5
o1
n1
v2
n2
V39 0 1
o5
o1
n1
v3
n2
V40 0 1
o5
o1
n1
v4
n2
V41 0 1
o5
o1
n1
v5
n2
V42 0 1
o5
o1
n1
v6
n2
V43 0 1
o5
o1
v0
v7
n2
V44 0 1
o5
o1
v1
v8
n2
V45 0 1
o5
o1
v2
v9
n2
V46 0 1
o5
o1
v3
v10
n2
V47 0 1
o5
o1
v4
v11
n2
V48 0 1
o5
o0
n-1
v5
n2
V49 0 1
o5
o1
n1
v12
n2
V50 0 1
o5
o1
v6
v13
n2
V51 0 1
o5
o1
v7
v14
n2
V52 0 1
o5
o1
v8
v15
n2
V53 0 1
o5
o1
v9
v16
n2
V54 0 1
o5
o1
v10
v17
n2
V55 0 1
o5
o0
n-1
v11
n2
V56 0 1
o5
o1
n1
v18
n2
V57 0 1
o5
o1
v12
v19
n2
V58 0 1
o5
o1
v13
v20
n2
V59 0 1
o5
o1
v14
v21
n2
V60 0 1
o5
o1
v15
v22
n2
V61 0 1
o5
o1
v16
v23
n2
V62 0 1
o5
o0
n-1
v17
n2
V63 0 1
o5
o1
n1
v24
n2
V64 0 1
o5
o1
v18
v25
n2
V65 0 1
o5
o1
v19
v26
n2
V66 0 1
o5
o1
v20
v27
n2
V67 0 1
o5
o1
v21
v28
n2
V68 0 1
o5
o1
v22
v29
n2
V69 0 1
o5
o0
n-1
v23
n2
V70 0 1
o5
o1
n1
v30
n2
V71 0 1
o5
o1
v24
v31
n2
V72 0 1
o5
o1
v25
v32
n2
V73 0 1
o5
o1
v26
v33
n2
V74 0 1
o5
o1
v27
v34
n2
V75 0 1
o5
o1
v28
v35
n2
V76 0 1
o5
o0
n-1
v29
n2
V77 0 1
o5
o0
n-1
v30
n2
V78 0 1
o5
o0
n-1
v31
n2
V79 0 1
o5
o0
n-1
v32
n2
V80 0 1
o5
o0
n-1
v33
n2
V81 0 1
o5
o0
n-1
v34
n2
V82 0 1
o5
o0
n-1
v35
n2
V83 0 1
o5
o1
n1
v0
n2
V84 0 1
o5
o1
n1
v1
n2
V85 0 1
o5
o1
n1
v2
n2
V86 0 1
o5
o1
n1
v3
n2
V87 0 1
o5
o1
n1
v4
n2
V88 0 1
o5
o1
n1
v5
n2
V89 0 1
o5
o0
n-1
v0
n2
V90 0 1
o5
o1
v1
v6
n2
V91 0 1
o5
o1
v2
v7
n2
V92 0 1
o5
o1
v3
v8
n2
V93 0 1
o5
o1
v4
v9
n2
V94 0 1
o5
o1
v5
v10
n2
V95 0 1
o5
o1
n1
v11
n2
V96 0 1
o5
o0
n-1
v6
n2
V97 0 1
o5
o1
v7
v12
n2
V98 0 1
o5
o1
v8
v13
n2
V99 0 1
o5
o1
v9
v14
n2
V100 0 1
o5
o1
v10
v15
n2
V101 0 1
o5
o1
v11
v16
n2
V102 0 1
o5
o1
n1
v17
n2
V103 0 1
o5
o0
n-1
v12
n2
V104 0 1
o5
o1
v13
v18
n2
V105 0 1
o5
o1
v14
v19
n2
V106 0 1
o5
o1
v15
v20
n2
V107 0 1
o5
o1
v16
v21
n2
V108 0 1
o5
o1
v17
v22
n2
V109 0 1
o5
o1
n1
v23
n2
V110 0 1
o5
o0
n-1
v18
n2
V111 0 1
o5
o1
v19
v24
n2
V112 0 1
o5
o1
v20
v25
n2
V113 0 1
o5
o1
v21
v26
n2
V114 0 1
o5
o1
v22
v27
n2
V115 0 1
o5
o1
v23
v28
n2
V116 0 1
o5
o1
n1
v29
n2
V117 0 1
o5
o0
n-1
v24
n2
V118 0 1
o5
o1
v25
v30
n2
V119 0 1
o5
o1
v26
v31
n2
V120 0 1
o5
o1
v27
v32
n2
V121 0 1
o5
o1
v28
v33
n2
V122 0 1
o5
o1
v29
v34
n2
V123 0 1
o5
o1
n1
v35
n2
V124 0 1
o5
o0
n-1
v30
n2
V125 0 1
o5
o0
n-1
v31
n2
V126 0 1
o5
o0
n-1
v32
n2
V127 0 1
o5
o0
n-1
v33
n2
V128 0 1
o5
o0
n-1
v34
n2
V129 0 1
o5
o0
n-1
v35
n2
O0 0
o54
49
o2
n0.02040816326530612
o39
o0
n1
o2
n24.5
v36
o2
n0.02040816326530612
o39
o54
3
n1
o2
n24.5
v37
o2
n24.5
v83
o2
n0.02040816326530612
o39
o54
3
n1
o2
n24.5
v38
o2
n24.5
v84
o2
n0.02040816326530612
o39
o54
3
n1
o2
n24.5
v39
o2
n24.5
v85
o2
n0.02040816326530612
o39
o54
3
n1
o2
n24.5
v40
o2
n24.5
v86
o2
n0.02040816326530612
o39
o54
3
n1
o2
n24.5
v41
o2
n24.5
v87
o2
n0.02040816326530612
o39
o0
n1
o2
n24.5
v88
o2
n0.02040816326530612
o39
o54
3
n1
o2
n24.5
v42
o2
n24.5
v89
o2
n0.02040816326530612
o39
o54
3
n1
o2
n24.5
v43
o2
n24.5
v90
o2
n0.02040816326530612
o39
o54
3
n1
o2
n24.5
v44
o2
n24.5
v91
o2
n0.02040816326530612
o39
o54
3
n1
o2
n24.5
v45
o2
n24.5
v92
o2
n0.02040816326530612
o39
o54
3
n1
o2
n24.5
v46
o2
n24.5
v93
o2
n0.02040816326530612
o39
o54
3
n1
o2
n24.5
v47
o2
n24.5
v94
o2
n0.02040816326530612
o39
o54
3
n1
o2
n24.5
v48
o2
n24.5
v95
o2
n0.02040816326530612
o39
o54
3
n1
o2
n24.5
v49
o2
n24.5
v96
o2
n0.02040816326530612
o39
o54
3
n1
o2
n24.5
v50
o2
n24.5
v97
o2
n0.02040816326530612
o39
o54
3
n1
o2
n24.5
v51
o2
n24.5
v98
o2
n0.02040816326530612
o39
o54
3
n1
o2
n24.5
v52
o2
n24.5
v99
o2
n0.02040816326530612
o39
o54
3
n1
o2
n24.5
v53
o2
n24.5
v100
o2
n0.02040816326530612
o39
o54
3
n1
o2
n24.5
v54
o2
n24.5
v101
o2
n0.02040816326530612
o39
o54
3
n1
o2
n24.5
v55
o2
n24.5
v102
o2
n0.02040816326530612
o39
o54
3
n1
o2
n24.5
v56
o2
n24.5
v103
o2
n0.02040816326530612
o39
o54
3
n1
o2
n24.5
v57
o2
n24.5
v104
o2
n0.02040816326530612
o39
o54
3
n1
o2
n24.5
v58
o2
n24.5
v105
o2
n0.02040816326530612
o39
o54
3
n1
o2
n24.5
v59
o2
n24.5
v106
o2
n0.02040816326530612
o39
o54
3
n1
o2
n24.5
v60
o2
n24.5
v107
o2
n0.02040816326530612
o39
o54
3
n1
o2
n24.5
v61
o2
n24.5
v108
o2
n0.02040816326530612
o39
o54
3
n1
o2
n24.5
v62
o2
n24.5
v109
o2
n0.02040816326530612
o39
o54
3
n1
o2
n24.5
v63
o2
n24.5
v110
o2
n0.02040816326530612
o39
o54
3
n1
o2
n24.5
v64
o2
n24.5
v111
o2
n0.02040816326530612
o39
o54
3
n1
o2
n24.5
v65
o2
n24.5
v112
o2
n0.02040816326530612
o39
o54
3
n1
o2
n24.5
v66
o2
n24.5
v113
o2
n0.02040816326530612
o39
o54
3
n1
o2
n24.5
v67
o2
n24.5
v114
o2
n0.02040816326530612
o39
o54
3
n1
o2
n24.5
v68
o2
n24.5
v115
o2
n0.02040816326530612
o39
o54
3
n1
o2
n24.5
v69
o2
n24.5
v116
o2
n0.02040816326530612
o39
o54
3
n1
o2
n24.5
v70
o2
n24.5
v117
o2
n0.02040816326530612
o39
o54
3
n1
o2
n24.5
v71
o2
n24.5
v118
o2
n0.02040816326530612
o39
o54
3
n1
o2
n24.5
v72
o2
n24.5
v119
o2
n0.02040816326530612
o39
o54
3
n1
o2
n24.5
v73
o2
n24.5
v120
o2
n0.02040816326530612
o39
o54
3
n1
o2
n24.5
v74
o2
n24.5
v121
o2
n0.02040816326530612
o39
o54
3
n1
o2
n24.5
v75
o2
n24.5
v122
o2
n0.02040816326530612
o39
o54
3
n1
o2
n24.5
v76
o2
n24.5
v123
o2
n0.02040816326530612
o39
o0
n1
o2
n24.5
v124
o2
n0.02040816326530612
o39
o54
3
n1
o2
n24.5
v77
o2
n24.5
v125
o2
n0.02040816326530612
o39
o54
3
n1
o2
n24.5
v78
o2
n24.5
v126
o2
n0.02040816326530612
o39
o54
3
n1
o2
n24.5
v79
o2
n24.5
v127
o2
n0.02040816326530612
o39
o54
3
n1
o2
n24.5
v80
o2
n24.5
v128
o2
n0.02040816326530612
o39
o54
3
n1
o2
n24.5
v81
o2
n24.5
v129
o2
n0.02040816326530612
o39
o0
n1
o2
n24.5
v82
k35
0
0
0
0
0
0
0
0
0
0
0
0
0
0
0
0
0
0
0
0
0
0
0
0
0
0
0
0
0
0
0
0
0
0
0
G0 36
0 0
1 0
2 0
3 0
4 0
5 0
6 0
7 0
8 0
9 0
10 0
11 0
12 0
13 0
14 0
15 0
16 0
17 0
18 0
19 0
20 0
21 0
22 0
23 0
24 0
25 0
26 0
27 0
28 0
29 0
30 0
31 0
32 0
33 0
34 0
35 0
